c --- [ banner ] -------------------------------------------------------------
c 
c CaDiCaL Radically Simplified CDCL SAT Solver
c Copyright (c) 2016-2021 A. Biere, M. Fleury, N. Froleyks
c 
c Version 1.5.2 a5f15211db36c3956764e18194dd5bd63bf3b5e6
c g++ (GCC) 9.3.0 -Wall -Wextra -O3 -DNDEBUG
c Fri Oct 21 01:27:37 EDT 2022 Linux gra-login3 3.10.0-1160.66.1.el7.x86_64 x86_64
c 
c --- [ limit ] --------------------------------------------------------------
c 
c setting conflict limit to 200000 conflicts (due to '200000')
c 
c --- [ parsing input ] ------------------------------------------------------
c 
c reading DIMACS file from '33.cubes6159.adj'
c opening file to read '33.cubes6159.adj'
c found 'p cnf 6160 1595481' header
c parsed 1595481 clauses in 19.71 seconds process time
c closing file '33.cubes6159.adj'
c after reading 1457566817 bytes 1390.0 MB
c 
c --- [ options ] ------------------------------------------------------------
c 
c all options are set to their default value
c 
c --- [ solving ] ------------------------------------------------------------
c 
c time measured in process time since initialization
c 
c  seconds    reductions  redundant   irredundant
c          MB     restarts       trail       variables
c            level   conflicts       glue         remaining
c 
c * 19.71 1384  0 0   0    0    0  0% 0 1595422 2324 38%
c { 20.81 1444  0 0   0    0    0  0% 0 1595422 2324 38%
c i 22.73 1485 449 0   3   91   76 25% 5 1595422 2316 38%
c i 22.73 1485 444 0   3   92   76 25% 5 1595422 2307 37%
c i 25.57 1516 280 0  19  155  129 25% 11 1595422 2306 37%
c i 28.30 1527 186 0  49  285  242 26% 19 1595422 2305 37%
c i 28.33 1527 184 0  50  289  245 26% 19 1595422 2304 37%
c - 32.16 1517 176 1  55  303  257 26% 19 336753 2304 37%
c i 32.32 1368 175 1  55  304  257 26% 19 336753 2294 37%
c i 32.42 1368 171 1  57  323  269 26% 20 336753 2293 37%
c i 33.11 1369 148 1  76  402  332 26% 23 336753 2292 37%
c i 33.28 1369 144 1  80  417  343 26% 23 336753 2291 37%
c i 33.43 1369 140 1  84  436  357 26% 24 336753 2290 37%
c i 33.60 1369 136 1  88  461  378 27% 24 336753 2289 37%
c i 33.84 1370 130 1  97  489  401 27% 25 336753 2288 37%
c i 34.00 1370 117 1 104  568  459 27% 25 336753 2287 37%
c i 34.44 1370 96 1 104  756  595 28% 24 336753 2286 37%
c i 34.46 1370 96 1 104  760  598 28% 24 336753 2285 37%
c i 34.48 1370 95 1 104  769  605 28% 24 336753 2284 37%
c i 34.55 1370 89 1 104  836  654 28% 24 336753 2283 37%
c 
c  seconds    reductions  redundant   irredundant
c          MB     restarts       trail       variables
c            level   conflicts       glue         remaining
c 
c i 34.55 1370 89 1 104  840  657 28% 24 336753 2282 37%
c i 34.65 1370 85 1 104  905  706 28% 24 336753 2281 37%
c i 34.74 1370 82 1 104  971  762 28% 24 336753 2280 37%
c } 34.89 1370 81 1 106 1001  788 28% 24 336753 2280 37%
c [ 34.89 1370  0 1 106 1001  788  0% 0 336753 2280 37%
c O 34.90 1370  7 1 106 1002  789 14% 1 336753 2280 37%
c i 35.21 1370 37 1 106 1101  867 29% 28 336753 2279 37%
c - 35.86 1522 37 2 106 1220  881 31% 30 336515 2279 37%
c i 35.99 1522 36 2 106 1255  911 31% 29 336515 2278 37%
c i 36.07 1522 33 2 106 1354  992 31% 28 336515 2277 37%
c i 36.08 1522 33 2 106 1368 1005 31% 28 336515 2276 37%
c i 36.27 1522 29 2 106 1783 1218 31% 25 336515 2275 37%
c i 36.30 1522 29 2 106 1846 1264 31% 25 336515 2274 37%
c i 36.34 1522 28 2 106 1966 1342 31% 24 336515 2273 37%
c - 36.96 1520 26 3 107 2597 1277 31% 23 336497 2273 37%
c ] 37.43 1520 25 3 107 3001 1526 54% 22 336497 2273 37%
c { 37.43 1520 81 3 107 3001 1526 76% 24 336497 2273 37%
c F 37.52 1520 81 3 108 3004 1529 76% 24 336497 2273 37%
c i 38.29 1520 79 3 118 3107 1615 73% 24 336497 2272 37%
c i 38.87 1520 80 3 127 3156 1658 71% 24 336497 2271 37%
c 
c  seconds    reductions  redundant   irredundant
c          MB     restarts       trail       variables
c            level   conflicts       glue         remaining
c 
c i 38.91 1520 80 3 127 3169 1668 71% 24 336497 2270 37%
c i 38.93 1520 79 3 127 3171 1669 71% 24 336497 2269 37%
c i 40.15 1520 80 3 151 3282 1770 69% 25 336497 2268 37%
c i 40.53 1520 78 3 158 3329 1813 68% 25 336497 2267 37%
c i 40.70 1520 78 3 158 3350 1832 67% 25 336497 2266 37%
c i 40.92 1520 78 3 160 3384 1863 67% 25 336497 2265 37%
c i 40.93 1520 78 3 161 3386 1864 67% 25 336497 2264 37%
c i 42.85 1520 77 3 216 3606 2073 64% 27 336497 2263 37%
c i 43.09 1520 78 3 221 3623 2089 64% 28 336497 2262 37%
c i 43.32 1520 78 3 226 3649 2112 63% 27 336497 2261 37%
c i 43.40 1520 79 3 226 3663 2124 63% 27 336497 2260 37%
c i 43.44 1520 79 3 227 3671 2130 63% 28 336497 2259 37%
c i 43.79 1520 79 3 241 3715 2173 63% 28 336497 2258 37%
c i 44.87 1520 80 3 267 3814 2266 61% 29 336497 2257 37%
c i 44.93 1520 79 3 269 3822 2273 61% 29 336497 2256 37%
c - 45.82 1516 68 4 271 4429 2051 59% 28 336446 2256 37%
c i 46.67 1516 67 4 294 4586 2188 58% 28 336446 2255 37%
c i 46.98 1516 67 4 306 4706 2291 58% 29 336446 2254 37%
c i 47.06 1516 67 4 310 4729 2312 57% 29 336446 2253 37%
c i 47.12 1516 66 4 310 4779 2348 57% 28 336446 2252 37%
c 
c  seconds    reductions  redundant   irredundant
c          MB     restarts       trail       variables
c            level   conflicts       glue         remaining
c 
c i 47.45 1516 66 4 317 4810 2378 57% 29 336446 2251 37%
c i 47.55 1516 65 4 320 4862 2416 57% 29 336446 2250 37%
c p 56.74 1516 63 4 320 5004 6139 56% 28 336414 2198 36%
c d 57.30 1516 63 4 320 5004 6130 56% 28 336278 2197 36%
c # 58.61 1516 54 4 323 6007 6887 55% 25 336278 2197 36%
c - 59.38 1509 49 5 326 6720 2869 54% 24 336278 2197 36%
c } 59.54 1509 47 5 326 7003 3068 53% 24 336278 2197 36%
c [ 59.54 1509 25 5 326 7003 3068 54% 22 336278 2197 36%
c ] 59.87 1509 26 5 327 8061 3769 49% 23 336278 2197 36%
c 1 59.87 1509 26 5 327 8061 3769 49% 23 336278 2197 36%
c 
c --- [ writing output ] -----------------------------------------------------
c 
c writing simplified CNF to DIMACS file 'simp/33.cubes6159.adj.simp1'
c * 59.87 1509 26 5 327 8061 3769 49% 23 336278 2197 36%
c opening file to write 'simp/33.cubes6159.adj.simp1'
c writing 'p cnf 6160 336278' header
c closing file 'simp/33.cubes6159.adj.simp1'
c after writing 160399559 bytes 153.0 MB
c wrote 336278 clauses in 1.18 seconds process time
c 
c --- [ writing extension ] --------------------------------------------------
c 
c writing extension stack to 'simp/33.cubes6159.adj.ext1'
c opening file to write 'simp/33.cubes6159.adj.ext1'
c closing file 'simp/33.cubes6159.adj.ext1'
c after writing 12344 bytes 0.0 MB
c wrote 827 witnesses in 0.00 seconds process time
c 
c --- [ result ] -------------------------------------------------------------
c 
s SATISFIABLE
c 
c --- [ run-time profiling ] -------------------------------------------------
c 
c process time taken by individual solving procedures
c (percentage relative to process time for solving)
c 
c        30.47   75.89% search
c        26.51   66.02% unstable
c        19.71   49.09% parse
c         9.68   24.11% simplify
c         8.50   21.17% probe
c         2.87    7.14% stable
c         1.10    2.73% lucky
c         0.04    0.11% ternary
c   =================================
c        40.15   65.78% solve
c 
c last line shows process time for solving
c (percentage relative to total process time)
c 
c --- [ statistics ] ---------------------------------------------------------
c 
c chronological:              1951        24.20 %  of conflicts
c conflicts:                  8061       200.75    per second
c decisions:                 39934       994.52    per second
c fixed:                       811        13.17 %  of all variables
c learned:                    7855        97.44 %  per conflict
c learned_lits:            1413928       100.00 %  learned literals
c minimized:                     0         0.00 %  learned literals
c shrunken:                 883422        62.48 %  learned literals
c minishrunken:             114113         8.07 %  learned literals
c propagations:            1317502         0.03 M  per second
c reduced:                    2363        29.31 %  per conflict
c rephased:                      3      2687.00    interval
c restarts:                    327        24.65    interval
c stabilizing:                   2        37.94 %  of conflicts
c substituted:                   8         0.13 %  of all variables
c subsumed:                   1838         0.06 %  of all clauses
c ternary:                    1017         0.57 %  of resolved
c weakened:                     16         2.00    average size
c 
c seconds are measured in process time for solving
c 
c --- [ resources ] ----------------------------------------------------------
c 
c total process time since initialization:        61.04    seconds
c total real time since initialization:           61.19    seconds
c maximum resident set size of process:         1671.49    MB
c 
c --- [ shutting down ] ------------------------------------------------------
c 
c exit 10
WARNING! DIMACS header mismatch: wrong number of variables.
============================[ Problem Statistics ]=============================
|                                                                             |
|  Number of variables:          6120                                         |
|  Number of clauses:          336278                                         |
|  Parse time:                   2.16 s                                       |
|  Simplification time:          0.05 s                                       |
|                                                                             |
============================[ Search Statistics ]====================================================
| Conflicts |          ORIGINAL         |          LEARNT          | Num Sols |      SUBGRAPHS      |
|           |    Vars  Clauses Literals |    Limit  Clauses Lit/Cl |          | Canonical Noncanon. |
=====================================================================================================
|       237 |    6028   336415 34657477 |     2000      237     58 |        0 |        55       137 |
|       435 |    6028   336463 34658458 |     2000      435     61 |        0 |        71       185 |
|       684 |    6028   336487 34658984 |     2000      684     76 |        0 |        75       209 |
|      1023 |    6028   336489 34659039 |     2000     1023     90 |        0 |        77       211 |
|      1583 |    6028   336543 34659980 |     2000     1583     87 |        0 |       110       265 |
|      2370 |    6028   336571 34660600 |     3602     1372     58 |        0 |       123       293 |
|      3592 |    6028   336654 34662359 |     3602     2594     70 |        0 |       152       376 |
|      5353 |    6028   336707 34663530 |     5001     2554     54 |        0 |       197       429 |
|      8774 |    6028   337566 34679804 |     6301     3475     43 |        0 |       404      1288 |
|     12736 |    6028   337684 34682952 |     7555     4291     40 |        0 |       462      1406 |
|     25775 |    6028   344957 34796897 |     9991     9166     51 |        0 |      1550      8679 |
|     36337 |    6028   346870 34833853 |    12411     9148     33 |        0 |      2122     10592 |
|     53288 |    6028   350847 34908427 |    14816    13104     32 |        0 |      3494     14569 |
|     76383 |    6028   354481 34968770 |    18409    12192     32 |        0 |      4405     18203 |
|    144935 |    6028   393841 35648211 |    25619    16554     36 |        0 |     10377     57563 |
|    192298 |    6028   397415 35703866 |    29217    23715     55 |        0 |     11147     61137 |
|    266882 |    6028   406315 35838687 |    35212    19294     19 |        0 |     12282     70037 |
|    380789 |    6028   421696 36086514 |    41220    39209     63 |        0 |     13851     85418 |
|    555691 |    6028   448809 36572115 |    50820    32511     40 |        0 |     18165    112531 |
|    802877 |    6028   474312 37095467 |    60427    59704     70 |        0 |     21516    138034 |
|   1145741 |    6028   484651 37325372 |    73612    37353     20 |        0 |     23417    148373 |
|   1711098 |    6028   551220 38365460 |    89225    77523     44 |        0 |     29246    214942 |
|   2534846 |    6009   624168 39681904 |   107941    59787     33 |        0 |     38929    290508 |
=====================================================================================================
Number of solutions   : 0
Canonical subgraphs   : 40363          (16 /sec)
          order  3    : 1              (166667 /sec)
          order  4    : 1              (500000 /sec)
          order  5    : 1              (250000 /sec)
          order  6    : 1              (55556 /sec)
          order  7    : 1              (8850 /sec)
          order  8    : 2              (1380 /sec)
          order  9    : 6              (315 /sec)
          order 10    : 26             (99 /sec)
          order 11    : 110            (30 /sec)
          order 12    : 628            (10 /sec)
          order 13    : 3829           (12 /sec)
          order 14    : 7470           (20 /sec)
          order 15    : 17013          (19 /sec)
          order 16    : 6156           (13 /sec)
          order 17    : 3496           (12 /sec)
          order 18    : 1259           (12 /sec)
          order 19    : 283            (8 /sec)
          order 20    : 57             (9 /sec)
          order 21    : 23             (10 /sec)
          order 22    : 0              (-nan /sec)
Noncanonical subgraphs: 295314         (134 /sec)
          order  3    : 0              (-nan /sec)
          order  4    : 0              (-nan /sec)
          order  5    : 0              (-nan /sec)
          order  6    : 0              (-nan /sec)
          order  7    : 0              (-nan /sec)
          order  8    : 0              (-nan /sec)
          order  9    : 0              (-nan /sec)
          order 10    : 0              (-nan /sec)
          order 11    : 0              (-nan /sec)
          order 12    : 0              (-nan /sec)
          order 13    : 8472           (6463 /sec)
          order 14    : 49772          (781 /sec)
          order 15    : 16893          (1260 /sec)
          order 16    : 212015         (106 /sec)
          order 17    : 4093           (93 /sec)
          order 18    : 2847           (81 /sec)
          order 19    : 1190           (44 /sec)
          order 20    : 1              (13 /sec)
          order 21    : 4              (13 /sec)
Canonicity checking   : 2557.54 s
Noncanonicity checking: 2197.36 s
Total canonicity time : 4754.91 s
database reductions   : 93
restarts              : 4860
conflicts             : 2781109        (444 /sec)
decisions             : 3893282        (0.00 % random) (622 /sec)
propagations          : 272215318      (43479 /sec)
conflict literals     : 290072481      (53.15 % deleted)
actual reward         : 0.124100
Memory used           : 613.00 MB
CPU time              : 6260.87 s

UNSATISFIABLE
